39 7 166 124 82 41 197 153 109 65 21 176 130 84 37 190 142 94 47 196 146 96 46 193 140 88 34 181 126 71 16 160 103 48 186 127 67 8 147 83 22 158 93 28 163 97 27 159 89 18 148 74 2 112 55 162 101 14 141 122 57 179 11 125 42 152 63 173 79 187 92 195 100 199 99 192 87 182 73 167 54 138 29 114 191 69 145 24 102 168 35 106 164 25 81 113 9 189 108 198 4 144 139 10 61 136 13 107 105 49 56 0 38 32 3 60 31 117 175 23 171 115 66 188 123 50 154 64 151 51 129 185 59 111 149 174 194 177 184 20 72 77 62 90 58 135 15 53 95 91 70 86 165 80 33 180 133 161 120 40 52 76 5 45 143 78 6 156 150 121 157 104 17 1 137 110 183 178 172 170 169 155 134 132 131 128 119 118 116 98 85 75 68 44 43 36 30 26 19 12 

